p cnf 199 789
c p weight -7 1 0
c p weight 7 -1 0
c p weight 11 6.12323399573676603586882014729198302312846062338790031898128063403419218957424163818359375E-17 0
c p weight -11 1 0
c p weight 12 1 0
c p weight -12 1 0
c p weight -9 1 0
c p weight 9 -1 0
c p weight -13 1 0
c p weight 13 -1 0
c p weight -15 1 0
c p weight 15 -1 0
c p weight 19 6.12323399573676603586882014729198302312846062338790031898128063403419218957424163818359375E-17 0
c p weight -19 1 0
c p weight 20 1 0
c p weight -20 1 0
c p weight -17 1 0
c p weight 17 -1 0
c p weight -21 1 0
c p weight 21 -1 0
c p weight -23 1 0
c p weight 23 -1 0
c p weight 28 0.9560013178130890576511546896654181182384490966796875 0
c p weight -28 1 0
c p weight 29 0.29336237035386292237859606757410801947116851806640625 0
c p weight -29 1 0
c p weight -26 1 0
c p weight 26 -1 0
c p weight -30 1 0
c p weight 30 -1 0
c p weight -33 1 0
c p weight 33 -1 0
c p weight 37 6.12323399573676603586882014729198302312846062338790031898128063403419218957424163818359375E-17 0
c p weight -37 1 0
c p weight 38 1 0
c p weight -38 1 0
c p weight -35 1 0
c p weight 35 -1 0
c p weight -39 1 0
c p weight 39 -1 0
c p weight -41 1 0
c p weight 41 -1 0
c p weight 46 0.9560013178130890576511546896654181182384490966796875 0
c p weight -46 1 0
c p weight 47 0.29336237035386292237859606757410801947116851806640625 0
c p weight -47 1 0
c p weight -44 1 0
c p weight 44 -1 0
c p weight -48 1 0
c p weight 48 -1 0
c p weight -51 1 0
c p weight 51 -1 0
c p weight 55 6.12323399573676603586882014729198302312846062338790031898128063403419218957424163818359375E-17 0
c p weight -55 1 0
c p weight 56 1 0
c p weight -56 1 0
c p weight -53 1 0
c p weight 53 -1 0
c p weight 59 0.1457901654242139966033420250823837704956531524658203125 0
c p weight -59 1 0
c p weight 60 0.98931553493593760162383432543720118701457977294921875 0
c p weight -60 1 0
c p weight -57 1 0
c p weight 57 -1 0
c p weight 63 6.12323399573676603586882014729198302312846062338790031898128063403419218957424163818359375E-17 0
c p weight -63 1 0
c p weight 64 1 0
c p weight -64 1 0
c p weight -61 1 0
c p weight 61 -1 0
c p weight 67 3.0616169978683831411939265144290861071468186371292985459291458028019405901432037353515625E-16 0
c p weight -67 1 0
c p weight 68 1 0
c p weight -68 1 0
c p weight -65 1 0
c p weight 65 -1 0
c p weight -69 1 0
c p weight 69 -1 0
c p weight 74 0.9560013178130890576511546896654181182384490966796875 0
c p weight -74 1 0
c p weight 75 0.29336237035386292237859606757410801947116851806640625 0
c p weight -75 1 0
c p weight -72 1 0
c p weight 72 -1 0
c p weight -76 1 0
c p weight 76 -1 0
c p weight -79 1 0
c p weight 79 -1 0
c p weight 83 6.12323399573676603586882014729198302312846062338790031898128063403419218957424163818359375E-17 0
c p weight -83 1 0
c p weight 84 1 0
c p weight -84 1 0
c p weight -81 1 0
c p weight 81 -1 0
c p weight 87 0.1457901654242139966033420250823837704956531524658203125 0
c p weight -87 1 0
c p weight 88 0.98931553493593760162383432543720118701457977294921875 0
c p weight -88 1 0
c p weight -85 1 0
c p weight 85 -1 0
c p weight 91 6.12323399573676603586882014729198302312846062338790031898128063403419218957424163818359375E-17 0
c p weight -91 1 0
c p weight 92 1 0
c p weight -92 1 0
c p weight -89 1 0
c p weight 89 -1 0
c p weight 95 3.0616169978683831411939265144290861071468186371292985459291458028019405901432037353515625E-16 0
c p weight -95 1 0
c p weight 96 1 0
c p weight -96 1 0
c p weight -93 1 0
c p weight 93 -1 0
c p weight -97 1 0
c p weight 97 -1 0
c p weight 102 0.7022530887263782606311224299133755266666412353515625 0
c p weight -102 1 0
c p weight 103 0.7119273834979671367051423658267594873905181884765625 0
c p weight -103 1 0
c p weight -100 1 0
c p weight 100 -1 0
c p weight -104 1 0
c p weight 104 -1 0
c p weight -107 1 0
c p weight 107 -1 0
c p weight 111 6.12323399573676603586882014729198302312846062338790031898128063403419218957424163818359375E-17 0
c p weight -111 1 0
c p weight 112 1 0
c p weight -112 1 0
c p weight -109 1 0
c p weight 109 -1 0
c p weight 115 0.1457901654242139966033420250823837704956531524658203125 0
c p weight -115 1 0
c p weight 116 0.98931553493593760162383432543720118701457977294921875 0
c p weight -116 1 0
c p weight -113 1 0
c p weight 113 -1 0
c p weight 119 6.12323399573676603586882014729198302312846062338790031898128063403419218957424163818359375E-17 0
c p weight -119 1 0
c p weight 120 1 0
c p weight -120 1 0
c p weight -117 1 0
c p weight 117 -1 0
c p weight 123 3.0616169978683831411939265144290861071468186371292985459291458028019405901432037353515625E-16 0
c p weight -123 1 0
c p weight 124 1 0
c p weight -124 1 0
c p weight -121 1 0
c p weight 121 -1 0
c p weight -125 1 0
c p weight 125 -1 0
c p weight 130 0.7022530887263782606311224299133755266666412353515625 0
c p weight -130 1 0
c p weight 131 0.7119273834979671367051423658267594873905181884765625 0
c p weight -131 1 0
c p weight -128 1 0
c p weight 128 -1 0
c p weight -132 1 0
c p weight 132 -1 0
c p weight -135 1 0
c p weight 135 -1 0
c p weight 139 6.12323399573676603586882014729198302312846062338790031898128063403419218957424163818359375E-17 0
c p weight -139 1 0
c p weight 140 1 0
c p weight -140 1 0
c p weight -137 1 0
c p weight 137 -1 0
c p weight 143 0.70816994252742959670143818584620021283626556396484375 0
c p weight -143 1 0
c p weight 144 -0.706042018934211146330426345230080187320709228515625 0
c p weight -144 1 0
c p weight -141 1 0
c p weight 141 -1 0
c p weight 147 6.12323399573676603586882014729198302312846062338790031898128063403419218957424163818359375E-17 0
c p weight -147 1 0
c p weight 148 1 0
c p weight -148 1 0
c p weight -145 1 0
c p weight 145 -1 0
c p weight 151 3.0616169978683831411939265144290861071468186371292985459291458028019405901432037353515625E-16 0
c p weight -151 1 0
c p weight 152 1 0
c p weight -152 1 0
c p weight -149 1 0
c p weight 149 -1 0
c p weight -153 1 0
c p weight 153 -1 0
c p weight 158 0.7022530887263782606311224299133755266666412353515625 0
c p weight -158 1 0
c p weight 159 0.7119273834979671367051423658267594873905181884765625 0
c p weight -159 1 0
c p weight -156 1 0
c p weight 156 -1 0
c p weight -160 1 0
c p weight 160 -1 0
c p weight -163 1 0
c p weight 163 -1 0
c p weight 167 6.12323399573676603586882014729198302312846062338790031898128063403419218957424163818359375E-17 0
c p weight -167 1 0
c p weight 168 1 0
c p weight -168 1 0
c p weight -165 1 0
c p weight 165 -1 0
c p weight 171 0.70816994252742959670143818584620021283626556396484375 0
c p weight -171 1 0
c p weight 172 -0.706042018934211146330426345230080187320709228515625 0
c p weight -172 1 0
c p weight -169 1 0
c p weight 169 -1 0
c p weight 175 6.12323399573676603586882014729198302312846062338790031898128063403419218957424163818359375E-17 0
c p weight -175 1 0
c p weight 176 1 0
c p weight -176 1 0
c p weight -173 1 0
c p weight 173 -1 0
c p weight 179 3.0616169978683831411939265144290861071468186371292985459291458028019405901432037353515625E-16 0
c p weight -179 1 0
c p weight 180 1 0
c p weight -180 1 0
c p weight -177 1 0
c p weight 177 -1 0
c p weight -181 1 0
c p weight 181 -1 0
c p weight 185 6.12323399573676603586882014729198302312846062338790031898128063403419218957424163818359375E-17 0
c p weight -185 1 0
c p weight 186 1 0
c p weight -186 1 0
c p weight -183 1 0
c p weight 183 -1 0
c p weight 189 0.70816994252742959670143818584620021283626556396484375 0
c p weight -189 1 0
c p weight 190 -0.706042018934211146330426345230080187320709228515625 0
c p weight -190 1 0
c p weight -187 1 0
c p weight 187 -1 0
c p weight 193 6.12323399573676603586882014729198302312846062338790031898128063403419218957424163818359375E-17 0
c p weight -193 1 0
c p weight 194 1 0
c p weight -194 1 0
c p weight -191 1 0
c p weight 191 -1 0
c p weight 197 3.0616169978683831411939265144290861071468186371292985459291458028019405901432037353515625E-16 0
c p weight -197 1 0
c p weight 198 1 0
c p weight -198 1 0
c p weight -195 1 0
c p weight 195 -1 0
c p weight 199 0.5 0
c p weight -199 1 0
199 0
-5 0
-3 0
-1 0
-7 1 0
-7 2 0
7 -1 -2 0
8 1 -2 0
8 -1 2 0
-8 1 2 0
-8 -1 -2 0
-9 10 0
-9 8 0
-9 -1 0
9 -10 1 -8 0
10 -1 8 0
-10 1 8 0
-11 8 0
10 -11 -1 0
-10 -11 1 0
10 11 1 -8 0
-10 11 -1 -8 0
-12 8 0
10 -12 1 0
-10 -12 -1 0
10 12 -1 -8 0
-10 12 1 -8 0
-13 10 0
-13 8 0
13 -10 -8 0
14 10 -8 0
14 -10 8 0
-14 10 8 0
-14 -10 -8 0
-15 3 0
-15 4 0
15 -3 -4 0
16 3 -4 0
16 -3 4 0
-16 3 4 0
-16 -3 -4 0
-17 18 0
-17 16 0
-17 -3 0
17 -18 3 -16 0
18 -3 16 0
-18 3 16 0
-19 16 0
18 -19 -3 0
-18 -19 3 0
18 19 3 -16 0
-18 19 -3 -16 0
-20 16 0
18 -20 3 0
-18 -20 -3 0
18 20 -3 -16 0
-18 20 3 -16 0
-21 18 0
-21 16 0
21 -18 -16 0
22 18 -16 0
22 -18 16 0
-22 18 16 0
-22 -18 -16 0
-23 10 0
-23 22 0
-23 18 -14 0
-23 -18 14 0
23 -10 18 14 -22 0
23 -10 -18 -14 -22 0
25 10 -18 0
25 -10 18 0
-25 10 18 0
-25 -10 -18 0
24 14 -22 0
24 -14 22 0
-24 14 22 0
-24 -14 -22 0
-26 25 0
-26 22 0
-26 -27 0
26 27 -25 -22 0
27 25 -22 0
-27 25 22 0
-28 25 0
27 -28 -22 0
-27 -28 22 0
27 28 -25 22 0
-27 28 -25 -22 0
-29 25 0
27 -29 22 0
-27 -29 -22 0
27 29 -25 -22 0
-27 29 -25 22 0
-30 10 0
-30 27 0
-30 25 -24 0
-30 -25 24 0
30 -10 25 24 -27 0
30 -10 -25 -24 -27 0
32 10 -25 0
32 -10 25 0
-32 10 25 0
-32 -10 -25 0
31 24 -27 0
31 -24 27 0
-31 24 27 0
-31 -24 -27 0
-33 5 0
-33 6 0
33 -5 -6 0
34 5 -6 0
34 -5 6 0
-34 5 6 0
-34 -5 -6 0
-35 36 0
-35 34 0
-35 -5 0
35 -36 5 -34 0
36 -5 34 0
-36 5 34 0
-37 34 0
36 -37 -5 0
-36 -37 5 0
36 37 5 -34 0
-36 37 -5 -34 0
-38 34 0
36 -38 5 0
-36 -38 -5 0
36 38 -5 -34 0
-36 38 5 -34 0
-39 36 0
-39 34 0
39 -36 -34 0
40 36 -34 0
40 -36 34 0
-40 36 34 0
-40 -36 -34 0
-41 10 0
-41 40 0
-41 36 -31 0
-41 -36 31 0
41 -10 36 31 -40 0
41 -10 -36 -31 -40 0
43 10 -36 0
43 -10 36 0
-43 10 36 0
-43 -10 -36 0
42 31 -40 0
42 -31 40 0
-42 31 40 0
-42 -31 -40 0
-44 43 0
-44 40 0
-44 -45 0
44 45 -43 -40 0
45 43 -40 0
-45 43 40 0
-46 43 0
45 -46 -40 0
-45 -46 40 0
45 46 -43 40 0
-45 46 -43 -40 0
-47 43 0
45 -47 40 0
-45 -47 -40 0
45 47 -43 -40 0
-45 47 -43 40 0
-48 10 0
-48 45 0
-48 43 -42 0
-48 -43 42 0
48 -10 43 42 -45 0
48 -10 -43 -42 -45 0
50 10 -43 0
50 -10 43 0
-50 10 43 0
-50 -10 -43 0
49 42 -45 0
49 -42 45 0
-49 42 45 0
-49 -42 -45 0
-51 10 0
-51 49 0
51 -10 -49 0
52 10 -49 0
52 -10 49 0
-52 10 49 0
-52 -10 -49 0
-53 54 0
-53 52 0
-53 -10 0
53 -54 10 -52 0
54 -10 52 0
-54 10 52 0
-55 52 0
54 -55 -10 0
-54 -55 10 0
54 55 10 -52 0
-54 55 -10 -52 0
-56 52 0
54 -56 10 0
-54 -56 -10 0
54 56 -10 -52 0
-54 56 10 -52 0
-57 54 0
-57 52 0
-57 -58 0
57 58 -54 -52 0
58 54 -52 0
-58 54 52 0
-59 54 0
58 -59 -52 0
-58 -59 52 0
58 59 -54 52 0
-58 59 -54 -52 0
-60 54 0
58 -60 52 0
-58 -60 -52 0
58 60 -54 -52 0
-58 60 -54 52 0
-61 62 0
-61 58 0
-61 -54 0
61 -62 54 -58 0
62 -54 58 0
-62 54 58 0
-63 58 0
62 -63 -54 0
-62 -63 54 0
62 63 54 -58 0
-62 63 -54 -58 0
-64 58 0
62 -64 54 0
-62 -64 -54 0
62 64 -54 -58 0
-62 64 54 -58 0
-65 62 0
-65 58 0
-65 -66 0
65 66 -62 -58 0
66 62 -58 0
-66 62 58 0
-67 62 0
66 -67 -58 0
-66 -67 58 0
66 67 -62 58 0
-66 67 -62 -58 0
-68 62 0
66 -68 58 0
-66 -68 -58 0
66 68 -62 -58 0
-66 68 -62 58 0
-69 32 0
-69 45 0
-69 50 -27 0
-69 -50 27 0
69 -32 50 27 -45 0
69 -32 -50 -27 -45 0
71 32 -50 0
71 -32 50 0
-71 32 50 0
-71 -32 -50 0
70 27 -45 0
70 -27 45 0
-70 27 45 0
-70 -27 -45 0
-72 71 0
-72 45 0
-72 -73 0
72 73 -71 -45 0
73 71 -45 0
-73 71 45 0
-74 71 0
73 -74 -45 0
-73 -74 45 0
73 74 -71 45 0
-73 74 -71 -45 0
-75 71 0
73 -75 45 0
-73 -75 -45 0
73 75 -71 -45 0
-73 75 -71 45 0
-76 32 0
-76 73 0
-76 71 -70 0
-76 -71 70 0
76 -32 71 70 -73 0
76 -32 -71 -70 -73 0
78 32 -71 0
78 -32 71 0
-78 32 71 0
-78 -32 -71 0
77 70 -73 0
77 -70 73 0
-77 70 73 0
-77 -70 -73 0
-79 32 0
-79 77 0
79 -32 -77 0
80 32 -77 0
80 -32 77 0
-80 32 77 0
-80 -32 -77 0
-81 82 0
-81 80 0
-81 -32 0
81 -82 32 -80 0
82 -32 80 0
-82 32 80 0
-83 80 0
82 -83 -32 0
-82 -83 32 0
82 83 32 -80 0
-82 83 -32 -80 0
-84 80 0
82 -84 32 0
-82 -84 -32 0
82 84 -32 -80 0
-82 84 32 -80 0
-85 82 0
-85 80 0
-85 -86 0
85 86 -82 -80 0
86 82 -80 0
-86 82 80 0
-87 82 0
86 -87 -80 0
-86 -87 80 0
86 87 -82 80 0
-86 87 -82 -80 0
-88 82 0
86 -88 80 0
-86 -88 -80 0
86 88 -82 -80 0
-86 88 -82 80 0
-89 90 0
-89 86 0
-89 -82 0
89 -90 82 -86 0
90 -82 86 0
-90 82 86 0
-91 86 0
90 -91 -82 0
-90 -91 82 0
90 91 82 -86 0
-90 91 -82 -86 0
-92 86 0
90 -92 82 0
-90 -92 -82 0
90 92 -82 -86 0
-90 92 82 -86 0
-93 90 0
-93 86 0
-93 -94 0
93 94 -90 -86 0
94 90 -86 0
-94 90 86 0
-95 90 0
94 -95 -86 0
-94 -95 86 0
94 95 -90 86 0
-94 95 -90 -86 0
-96 90 0
94 -96 86 0
-94 -96 -86 0
94 96 -90 -86 0
-94 96 -90 86 0
-97 62 0
-97 94 0
-97 90 -66 0
-97 -90 66 0
97 -62 90 66 -94 0
97 -62 -90 -66 -94 0
99 62 -90 0
99 -62 90 0
-99 62 90 0
-99 -62 -90 0
98 66 -94 0
98 -66 94 0
-98 66 94 0
-98 -66 -94 0
-100 99 0
-100 94 0
-100 -101 0
100 101 -99 -94 0
101 99 -94 0
-101 99 94 0
-102 99 0
101 -102 -94 0
-101 -102 94 0
101 102 -99 94 0
-101 102 -99 -94 0
-103 99 0
101 -103 94 0
-101 -103 -94 0
101 103 -99 -94 0
-101 103 -99 94 0
-104 62 0
-104 101 0
-104 99 -98 0
-104 -99 98 0
104 -62 99 98 -101 0
104 -62 -99 -98 -101 0
106 62 -99 0
106 -62 99 0
-106 62 99 0
-106 -62 -99 0
105 98 -101 0
105 -98 101 0
-105 98 101 0
-105 -98 -101 0
-107 78 0
-107 73 0
107 -78 -73 0
108 78 -73 0
108 -78 73 0
-108 78 73 0
-108 -78 -73 0
-109 110 0
-109 108 0
-109 -78 0
109 -110 78 -108 0
110 -78 108 0
-110 78 108 0
-111 108 0
110 -111 -78 0
-110 -111 78 0
110 111 78 -108 0
-110 111 -78 -108 0
-112 108 0
110 -112 78 0
-110 -112 -78 0
110 112 -78 -108 0
-110 112 78 -108 0
-113 110 0
-113 108 0
-113 -114 0
113 114 -110 -108 0
114 110 -108 0
-114 110 108 0
-115 110 0
114 -115 -108 0
-114 -115 108 0
114 115 -110 108 0
-114 115 -110 -108 0
-116 110 0
114 -116 108 0
-114 -116 -108 0
114 116 -110 -108 0
-114 116 -110 108 0
-117 118 0
-117 114 0
-117 -110 0
117 -118 110 -114 0
118 -110 114 0
-118 110 114 0
-119 114 0
118 -119 -110 0
-118 -119 110 0
118 119 110 -114 0
-118 119 -110 -114 0
-120 114 0
118 -120 110 0
-118 -120 -110 0
118 120 -110 -114 0
-118 120 110 -114 0
-121 118 0
-121 114 0
-121 -122 0
121 122 -118 -114 0
122 118 -114 0
-122 118 114 0
-123 118 0
122 -123 -114 0
-122 -123 114 0
122 123 -118 114 0
-122 123 -118 -114 0
-124 118 0
122 -124 114 0
-122 -124 -114 0
122 124 -118 -114 0
-122 124 -118 114 0
-125 62 0
-125 122 0
-125 118 -105 0
-125 -118 105 0
125 -62 118 105 -122 0
125 -62 -118 -105 -122 0
127 62 -118 0
127 -62 118 0
-127 62 118 0
-127 -62 -118 0
126 105 -122 0
126 -105 122 0
-126 105 122 0
-126 -105 -122 0
-128 127 0
-128 122 0
-128 -129 0
128 129 -127 -122 0
129 127 -122 0
-129 127 122 0
-130 127 0
129 -130 -122 0
-129 -130 122 0
129 130 -127 122 0
-129 130 -127 -122 0
-131 127 0
129 -131 122 0
-129 -131 -122 0
129 131 -127 -122 0
-129 131 -127 122 0
-132 62 0
-132 129 0
-132 127 -126 0
-132 -127 126 0
132 -62 127 126 -129 0
132 -62 -127 -126 -129 0
134 62 -127 0
134 -62 127 0
-134 62 127 0
-134 -62 -127 0
133 126 -129 0
133 -126 129 0
-133 126 129 0
-133 -126 -129 0
-135 62 0
-135 133 0
135 -62 -133 0
136 62 -133 0
136 -62 133 0
-136 62 133 0
-136 -62 -133 0
-137 138 0
-137 136 0
-137 -62 0
137 -138 62 -136 0
138 -62 136 0
-138 62 136 0
-139 136 0
138 -139 -62 0
-138 -139 62 0
138 139 62 -136 0
-138 139 -62 -136 0
-140 136 0
138 -140 62 0
-138 -140 -62 0
138 140 -62 -136 0
-138 140 62 -136 0
-141 138 0
-141 136 0
-141 -142 0
141 142 -138 -136 0
142 138 -136 0
-142 138 136 0
-143 138 0
142 -143 -136 0
-142 -143 136 0
142 143 -138 136 0
-142 143 -138 -136 0
-144 138 0
142 -144 136 0
-142 -144 -136 0
142 144 -138 -136 0
-142 144 -138 136 0
-145 146 0
-145 142 0
-145 -138 0
145 -146 138 -142 0
146 -138 142 0
-146 138 142 0
-147 142 0
146 -147 -138 0
-146 -147 138 0
146 147 138 -142 0
-146 147 -138 -142 0
-148 142 0
146 -148 138 0
-146 -148 -138 0
146 148 -138 -142 0
-146 148 138 -142 0
-149 146 0
-149 142 0
-149 -150 0
149 150 -146 -142 0
150 146 -142 0
-150 146 142 0
-151 146 0
150 -151 -142 0
-150 -151 142 0
150 151 -146 142 0
-150 151 -146 -142 0
-152 146 0
150 -152 142 0
-150 -152 -142 0
150 152 -146 -142 0
-150 152 -146 142 0
-153 106 0
-153 129 0
-153 134 -101 0
-153 -134 101 0
153 -106 134 101 -129 0
153 -106 -134 -101 -129 0
155 106 -134 0
155 -106 134 0
-155 106 134 0
-155 -106 -134 0
154 101 -129 0
154 -101 129 0
-154 101 129 0
-154 -101 -129 0
-156 155 0
-156 129 0
-156 -157 0
156 157 -155 -129 0
157 155 -129 0
-157 155 129 0
-158 155 0
157 -158 -129 0
-157 -158 129 0
157 158 -155 129 0
-157 158 -155 -129 0
-159 155 0
157 -159 129 0
-157 -159 -129 0
157 159 -155 -129 0
-157 159 -155 129 0
-160 106 0
-160 157 0
-160 155 -154 0
-160 -155 154 0
160 -106 155 154 -157 0
160 -106 -155 -154 -157 0
162 106 -155 0
162 -106 155 0
-162 106 155 0
-162 -106 -155 0
161 154 -157 0
161 -154 157 0
-161 154 157 0
-161 -154 -157 0
-163 106 0
-163 161 0
163 -106 -161 0
164 106 -161 0
164 -106 161 0
-164 106 161 0
-164 -106 -161 0
-165 166 0
-165 164 0
-165 -106 0
165 -166 106 -164 0
166 -106 164 0
-166 106 164 0
-167 164 0
166 -167 -106 0
-166 -167 106 0
166 167 106 -164 0
-166 167 -106 -164 0
-168 164 0
166 -168 106 0
-166 -168 -106 0
166 168 -106 -164 0
-166 168 106 -164 0
-169 166 0
-169 164 0
-169 -170 0
169 170 -166 -164 0
170 166 -164 0
-170 166 164 0
-171 166 0
170 -171 -164 0
-170 -171 164 0
170 171 -166 164 0
-170 171 -166 -164 0
-172 166 0
170 -172 164 0
-170 -172 -164 0
170 172 -166 -164 0
-170 172 -166 164 0
-173 174 0
-173 170 0
-173 -166 0
173 -174 166 -170 0
174 -166 170 0
-174 166 170 0
-175 170 0
174 -175 -166 0
-174 -175 166 0
174 175 166 -170 0
-174 175 -166 -170 0
-176 170 0
174 -176 166 0
-174 -176 -166 0
174 176 -166 -170 0
-174 176 166 -170 0
-177 174 0
-177 170 0
-177 -178 0
177 178 -174 -170 0
178 174 -170 0
-178 174 170 0
-179 174 0
178 -179 -170 0
-178 -179 170 0
178 179 -174 170 0
-178 179 -174 -170 0
-180 174 0
178 -180 170 0
-178 -180 -170 0
178 180 -174 -170 0
-178 180 -174 170 0
-181 162 0
-181 157 0
181 -162 -157 0
182 162 -157 0
182 -162 157 0
-182 162 157 0
-182 -162 -157 0
-183 184 0
-183 182 0
-183 -162 0
183 -184 162 -182 0
184 -162 182 0
-184 162 182 0
-185 182 0
184 -185 -162 0
-184 -185 162 0
184 185 162 -182 0
-184 185 -162 -182 0
-186 182 0
184 -186 162 0
-184 -186 -162 0
184 186 -162 -182 0
-184 186 162 -182 0
-187 184 0
-187 182 0
-187 -188 0
187 188 -184 -182 0
188 184 -182 0
-188 184 182 0
-189 184 0
188 -189 -182 0
-188 -189 182 0
188 189 -184 182 0
-188 189 -184 -182 0
-190 184 0
188 -190 182 0
-188 -190 -182 0
188 190 -184 -182 0
-188 190 -184 182 0
-191 192 0
-191 188 0
-191 -184 0
191 -192 184 -188 0
192 -184 188 0
-192 184 188 0
-193 188 0
192 -193 -184 0
-192 -193 184 0
192 193 184 -188 0
-192 193 -184 -188 0
-194 188 0
192 -194 184 0
-192 -194 -184 0
192 194 -184 -188 0
-192 194 184 -188 0
-195 192 0
-195 188 0
-195 -196 0
195 196 -192 -188 0
196 192 -188 0
-196 192 188 0
-197 192 0
196 -197 -188 0
-196 -197 188 0
196 197 -192 188 0
-196 197 -192 -188 0
-198 192 0
196 -198 188 0
-196 -198 -188 0
196 198 -192 -188 0
-196 198 -192 188 0
-146 0
-174 0
-178 0
-192 0
-196 0
